benchmark/results/graph__15-1000-0.10-02_19/graph__15-1000-0.10-02_19_QuintonOs_Benders_primal_sub.lp
\ This file has been generated by DOcplex
\ ENCODING=ISO-8859-1
\Problem name: Quinton Bounded Benders_primal_sub

Maximize
 obj: tau
Subject To
 c1: tau <= 0.001422475107
 c2: y_a0_proc_0 + y_a0_proc_1 - tau = 0
 c3: y_a0_proc_0 <= 0
 c4: y_a0_proc_1 <= 1
 c5: tau <= 0.000960614793
 c6: y_a1_proc_0 + y_a1_proc_1 - tau = 0
 c7: y_a1_proc_0 <= 0
 c8: y_a1_proc_1 <= 1
 c9: tau <= 0.001869158879
 c10: y_a2_proc_0 + y_a2_proc_1 - tau = 0
 c11: y_a2_proc_0 <= 1
 c12: y_a2_proc_1 <= 0
 c13: tau <= 0.000931098696
 c14: y_a3_proc_0 - tau = 0
 c15: y_a3_proc_0 <= 1
 c16: tau <= 0.001620745543
 c17: y_a4_proc_0 + y_a4_proc_1 - tau = 0
 c18: y_a4_proc_0 <= 1
 c19: y_a4_proc_1 <= 0
 c20: tau <= 0.001057082452
 c21: y_a5_proc_0 + y_a5_proc_1 - tau = 0
 c22: y_a5_proc_0 <= 0
 c23: y_a5_proc_1 <= 1
 c24: tau <= 0.001655629139
 c25: y_a6_proc_0 - tau = 0
 c26: y_a6_proc_0 <= 1
 c27: tau <= 0.000782472613
 c28: y_a7_proc_0 + y_a7_proc_1 - tau = 0
 c29: y_a7_proc_0 <= 0
 c30: y_a7_proc_1 <= 1
 c31: tau <= 0.001137656428
 c32: y_a8_proc_0 - tau = 0
 c33: y_a8_proc_0 <= 1
 c34: tau <= 0.000800640512
 c35: y_a9_proc_0 + y_a9_proc_1 - tau = 0
 c36: y_a9_proc_0 <= 0
 c37: y_a9_proc_1 <= 1
 c38: tau <= 0.001305483029
 c39: y_a10_proc_0 + y_a10_proc_1 - tau = 0
 c40: y_a10_proc_0 <= 1
 c41: y_a10_proc_1 <= 0
 c42: tau <= 0.000921658986
 c43: y_a11_proc_0 + y_a11_proc_1 - tau = 0
 c44: y_a11_proc_0 <= 0
 c45: y_a11_proc_1 <= 1
 c46: tau <= 0.003787878788
 c47: y_a12_proc_0 + y_a12_proc_1 - tau = 0
 c48: y_a12_proc_0 <= 1
 c49: y_a12_proc_1 <= 0
 c50: tau <= 0.000938086304
 c51: y_a13_proc_0 - tau = 0
 c52: y_a13_proc_0 <= 1
 c53: tau <= 0.002024291498
 c54: y_a14_proc_0 + y_a14_proc_1 - tau = 0
 c55: y_a14_proc_0 <= 1
 c56: y_a14_proc_1 <= 0
 c57: u_a1 - u_a0 - 777 y_a0_proc_0 - 703 y_a0_proc_1 >= 0
 c58: u_a0 - u_a2 - 535 y_a2_proc_0 - 1178 y_a2_proc_1 >= -1
 c59: u_a3 - u_a2 - 535 y_a2_proc_0 - 1178 y_a2_proc_1 >= -1
 c60: u_a4 - u_a2 - 535 y_a2_proc_0 - 1178 y_a2_proc_1 >= 0
 c61: u_a4 - u_a5 - 708 y_a5_proc_0 - 946 y_a5_proc_1 >= 0
 c62: u_a2 - u_a6 - 604 y_a6_proc_0 >= 0
 c63: u_a7 - u_a1 - 705 y_a1_proc_0 - 1041 y_a1_proc_1 >= 0
 c64: u_a6 - u_a8 - 879 y_a8_proc_0 >= -1
 c65: u_a5 - u_a9 - 899 y_a9_proc_0 - 1249 y_a9_proc_1 >= 0
 c66: u_a8 - u_a10 - 766 y_a10_proc_0 - 1049 y_a10_proc_1 >= 0
 c67: u_a2 - u_a11 - 1239 y_a11_proc_0 - 1085 y_a11_proc_1 >= -1
 c68: u_a10 - u_a12 - 264 y_a12_proc_0 - 1129 y_a12_proc_1 >= 0
 c69: u_a6 - u_a13 - 1066 y_a13_proc_0 >= 0
 c70: u_a7 - u_a14 - 494 y_a14_proc_0 - 1141 y_a14_proc_1 >= -1
 c71: u_a12 - u_a13 - 1066 y_a13_proc_0 >= 0
 c72: u_a10 - u_a8 - 879 y_a8_proc_0 >= -1
 c73: u_a11 - u_a10 - 766 y_a10_proc_0 - 1049 y_a10_proc_1 >= 0
 c74: u_a12 - u_a3 - 1074 y_a3_proc_0 >= -1
 c75: u_a13 - u_a14 - 494 y_a14_proc_0 - 1141 y_a14_proc_1 >= -1
 c76: u_a9 - u_a7 - 999 y_a7_proc_0 - 1278 y_a7_proc_1 >= 0
 c77: u_a14 - u_a10 - 766 y_a10_proc_0 - 1049 y_a10_proc_1 >= 0
 c78: u_a11 - u_a4 - 617 y_a4_proc_0 - 697 y_a4_proc_1 >= 0
 c79: u_a7 - u_a5 - 708 y_a5_proc_0 - 946 y_a5_proc_1 >= -1
 c80: u_a13 - u_a7 - 999 y_a7_proc_0 - 1278 y_a7_proc_1 >= -1
 c81: u_a1 - u_a0 - 777 y_a0_proc_0 >= -2556
 c82: u_a1 - u_a0 - 703 y_a0_proc_1 >= 0
 c83: u_a0 - u_a1 - 705 y_a1_proc_0 >= -2557
 c84: u_a0 - u_a1 - 1041 y_a1_proc_1 >= -1
 c85: u_a2 - u_a0 - 777 y_a0_proc_0 >= -1262
 c86: u_a2 - u_a0 - 703 y_a0_proc_1 >= -1262
 c87: u_a0 - u_a2 - 535 y_a2_proc_0 >= -1295
 c88: u_a0 - u_a2 - 1178 y_a2_proc_1 >= -1295
 c89: u_a3 - u_a0 - 777 y_a0_proc_0 >= -1295
 c90: u_a0 - u_a3 - 1074 y_a3_proc_0 >= -1262
 c91: u_a4 - u_a0 - 777 y_a0_proc_0 >= -1295
 c92: u_a4 - u_a0 - 703 y_a0_proc_1 >= -1295
 c93: u_a0 - u_a4 - 617 y_a4_proc_0 >= -1262
 c94: u_a0 - u_a4 - 697 y_a4_proc_1 >= -1262
 c95: u_a5 - u_a0 - 777 y_a0_proc_0 >= -2556
 c96: u_a5 - u_a0 - 703 y_a0_proc_1 >= 0
 c97: u_a0 - u_a5 - 708 y_a5_proc_0 >= -2557
 c98: u_a0 - u_a5 - 946 y_a5_proc_1 >= -1
 c99: u_a6 - u_a0 - 777 y_a0_proc_0 >= -1295
 c100: u_a0 - u_a6 - 604 y_a6_proc_0 >= -1262
 c101: u_a7 - u_a0 - 777 y_a0_proc_0 >= -2556
 c102: u_a7 - u_a0 - 703 y_a0_proc_1 >= 0
 c103: u_a0 - u_a7 - 999 y_a7_proc_0 >= -2557
 c104: u_a0 - u_a7 - 1278 y_a7_proc_1 >= -1
 c105: u_a8 - u_a0 - 777 y_a0_proc_0 >= -1295
 c106: u_a0 - u_a8 - 879 y_a8_proc_0 >= -1262
 c107: u_a9 - u_a0 - 777 y_a0_proc_0 >= -2556
 c108: u_a9 - u_a0 - 703 y_a0_proc_1 >= 0
 c109: u_a0 - u_a9 - 899 y_a9_proc_0 >= -2557
 c110: u_a0 - u_a9 - 1249 y_a9_proc_1 >= -1
 c111: u_a10 - u_a0 - 777 y_a0_proc_0 >= -1295
 c112: u_a10 - u_a0 - 703 y_a0_proc_1 >= -1295
 c113: u_a0 - u_a10 - 766 y_a10_proc_0 >= -1262
 c114: u_a0 - u_a10 - 1049 y_a10_proc_1 >= -1262
 c115: u_a11 - u_a0 - 777 y_a0_proc_0 >= -2555
 c116: u_a11 - u_a0 - 703 y_a0_proc_1 >= 1
 c117: u_a0 - u_a11 - 1239 y_a11_proc_0 >= -2558
 c118: u_a0 - u_a11 - 1085 y_a11_proc_1 >= -2
 c119: u_a12 - u_a0 - 777 y_a0_proc_0 >= -1262
 c120: u_a12 - u_a0 - 703 y_a0_proc_1 >= -1262
 c121: u_a0 - u_a12 - 264 y_a12_proc_0 >= -1295
 c122: u_a0 - u_a12 - 1129 y_a12_proc_1 >= -1295
 c123: u_a13 - u_a0 - 777 y_a0_proc_0 >= -1295
 c124: u_a0 - u_a13 - 1066 y_a13_proc_0 >= -1262
 c125: u_a14 - u_a0 - 777 y_a0_proc_0 >= -1262
 c126: u_a14 - u_a0 - 703 y_a0_proc_1 >= -1262
 c127: u_a0 - u_a14 - 494 y_a14_proc_0 >= -1295
 c128: u_a0 - u_a14 - 1141 y_a14_proc_1 >= -1295
 c129: u_a2 - u_a1 - 705 y_a1_proc_0 >= -1262
 c130: u_a2 - u_a1 - 1041 y_a1_proc_1 >= -1262
 c131: u_a1 - u_a2 - 535 y_a2_proc_0 >= -1295
 c132: u_a1 - u_a2 - 1178 y_a2_proc_1 >= -1295
 c133: u_a3 - u_a1 - 705 y_a1_proc_0 >= -1262
 c134: u_a1 - u_a3 - 1074 y_a3_proc_0 >= -1295
 c135: u_a4 - u_a1 - 705 y_a1_proc_0 >= -1295
 c136: u_a4 - u_a1 - 1041 y_a1_proc_1 >= -1295
 c137: u_a1 - u_a4 - 617 y_a4_proc_0 >= -1262
 c138: u_a1 - u_a4 - 697 y_a4_proc_1 >= -1262
 c139: u_a5 - u_a1 - 705 y_a1_proc_0 >= -2556
 c140: u_a5 - u_a1 - 1041 y_a1_proc_1 >= 0
 c141: u_a1 - u_a5 - 708 y_a5_proc_0 >= -2557
 c142: u_a1 - u_a5 - 946 y_a5_proc_1 >= -1
 c143: u_a6 - u_a1 - 705 y_a1_proc_0 >= -1295
 c144: u_a1 - u_a6 - 604 y_a6_proc_0 >= -1262
 c145: u_a7 - u_a1 - 705 y_a1_proc_0 >= -2556
 c146: u_a7 - u_a1 - 1041 y_a1_proc_1 >= 0
 c147: u_a1 - u_a7 - 999 y_a7_proc_0 >= -2557
 c148: u_a1 - u_a7 - 1278 y_a7_proc_1 >= -1
 c149: u_a8 - u_a1 - 705 y_a1_proc_0 >= -1262
 c150: u_a1 - u_a8 - 879 y_a8_proc_0 >= -1295
 c151: u_a9 - u_a1 - 705 y_a1_proc_0 >= -2556
 c152: u_a9 - u_a1 - 1041 y_a1_proc_1 >= 0
 c153: u_a1 - u_a9 - 899 y_a9_proc_0 >= -2557
 c154: u_a1 - u_a9 - 1249 y_a9_proc_1 >= -1
 c155: u_a10 - u_a1 - 705 y_a1_proc_0 >= -1295
 c156: u_a10 - u_a1 - 1041 y_a1_proc_1 >= -1295
 c157: u_a1 - u_a10 - 766 y_a10_proc_0 >= -1262
 c158: u_a1 - u_a10 - 1049 y_a10_proc_1 >= -1262
 c159: u_a11 - u_a1 - 705 y_a1_proc_0 >= -2555
 c160: u_a11 - u_a1 - 1041 y_a1_proc_1 >= 1
 c161: u_a1 - u_a11 - 1239 y_a11_proc_0 >= -2558
 c162: u_a1 - u_a11 - 1085 y_a11_proc_1 >= -2
 c163: u_a12 - u_a1 - 705 y_a1_proc_0 >= -1295
 c164: u_a12 - u_a1 - 1041 y_a1_proc_1 >= -1295
 c165: u_a1 - u_a12 - 264 y_a12_proc_0 >= -1262
 c166: u_a1 - u_a12 - 1129 y_a12_proc_1 >= -1262
 c167: u_a13 - u_a1 - 705 y_a1_proc_0 >= -1295
 c168: u_a1 - u_a13 - 1066 y_a13_proc_0 >= -1262
 c169: u_a14 - u_a1 - 705 y_a1_proc_0 >= -1262
 c170: u_a14 - u_a1 - 1041 y_a1_proc_1 >= -1262
 c171: u_a1 - u_a14 - 494 y_a14_proc_0 >= -1295
 c172: u_a1 - u_a14 - 1141 y_a14_proc_1 >= -1295
 c173: u_a3 - u_a2 - 535 y_a2_proc_0 >= -1
 c174: u_a2 - u_a3 - 1074 y_a3_proc_0 >= 0
 c175: u_a4 - u_a2 - 535 y_a2_proc_0 >= 0
 c176: u_a4 - u_a2 - 1178 y_a2_proc_1 >= -2556
 c177: u_a2 - u_a4 - 617 y_a4_proc_0 >= -1
 c178: u_a2 - u_a4 - 697 y_a4_proc_1 >= -2557
 c179: u_a5 - u_a2 - 535 y_a2_proc_0 >= -1295
 c180: u_a5 - u_a2 - 1178 y_a2_proc_1 >= -1295
 c181: u_a2 - u_a5 - 708 y_a5_proc_0 >= -1262
 c182: u_a2 - u_a5 - 946 y_a5_proc_1 >= -1262
 c183: u_a6 - u_a2 - 535 y_a2_proc_0 >= -1
 c184: u_a2 - u_a6 - 604 y_a6_proc_0 >= 0
 c185: u_a7 - u_a2 - 535 y_a2_proc_0 >= -1278
 c186: u_a7 - u_a2 - 1178 y_a2_proc_1 >= -1278
 c187: u_a2 - u_a7 - 999 y_a7_proc_0 >= -1279
 c188: u_a2 - u_a7 - 1278 y_a7_proc_1 >= -1279
 c189: u_a8 - u_a2 - 535 y_a2_proc_0 >= -1
 c190: u_a2 - u_a8 - 879 y_a8_proc_0 >= 0
 c191: u_a9 - u_a2 - 535 y_a2_proc_0 >= -1262
 c192: u_a9 - u_a2 - 1178 y_a2_proc_1 >= -1262
 c193: u_a2 - u_a9 - 899 y_a9_proc_0 >= -1295
 c194: u_a2 - u_a9 - 1249 y_a9_proc_1 >= -1295
 c195: u_a10 - u_a2 - 535 y_a2_proc_0 >= -1
 c196: u_a10 - u_a2 - 1178 y_a2_proc_1 >= -2557
 c197: u_a2 - u_a10 - 766 y_a10_proc_0 >= 0
 c198: u_a2 - u_a10 - 1049 y_a10_proc_1 >= -2556
 c199: u_a11 - u_a2 - 535 y_a2_proc_0 >= -1262
 c200: u_a11 - u_a2 - 1178 y_a2_proc_1 >= -1262
 c201: u_a2 - u_a11 - 1239 y_a11_proc_0 >= -1295
 c202: u_a2 - u_a11 - 1085 y_a11_proc_1 >= -1295
 c203: u_a12 - u_a2 - 535 y_a2_proc_0 >= -1
 c204: u_a12 - u_a2 - 1178 y_a2_proc_1 >= -2557
 c205: u_a2 - u_a12 - 264 y_a12_proc_0 >= 0
 c206: u_a2 - u_a12 - 1129 y_a12_proc_1 >= -2556
 c207: u_a13 - u_a2 - 535 y_a2_proc_0 >= -1
 c208: u_a2 - u_a13 - 1066 y_a13_proc_0 >= 0
 c209: u_a14 - u_a2 - 535 y_a2_proc_0 >= 0
 c210: u_a14 - u_a2 - 1178 y_a2_proc_1 >= -2556
 c211: u_a2 - u_a14 - 494 y_a14_proc_0 >= -1
 c212: u_a2 - u_a14 - 1141 y_a14_proc_1 >= -2557
 c213: u_a4 - u_a3 - 1074 y_a3_proc_0 >= 1
 c214: u_a3 - u_a4 - 617 y_a4_proc_0 >= -2
 c215: u_a5 - u_a3 - 1074 y_a3_proc_0 >= -1262
 c216: u_a3 - u_a5 - 708 y_a5_proc_0 >= -1295
 c217: u_a6 - u_a3 - 1074 y_a3_proc_0 >= 0
 c218: u_a3 - u_a6 - 604 y_a6_proc_0 >= -1
 c219: u_a7 - u_a3 - 1074 y_a3_proc_0 >= -1277
 c220: u_a3 - u_a7 - 999 y_a7_proc_0 >= -1280
 c221: u_a8 - u_a3 - 1074 y_a3_proc_0 >= 0
 c222: u_a3 - u_a8 - 879 y_a8_proc_0 >= -1
 c223: u_a9 - u_a3 - 1074 y_a3_proc_0 >= -1295
 c224: u_a3 - u_a9 - 899 y_a9_proc_0 >= -1262
 c225: u_a10 - u_a3 - 1074 y_a3_proc_0 >= 0
 c226: u_a3 - u_a10 - 766 y_a10_proc_0 >= -1
 c227: u_a11 - u_a3 - 1074 y_a3_proc_0 >= -1295
 c228: u_a3 - u_a11 - 1239 y_a11_proc_0 >= -1262
 c229: u_a12 - u_a3 - 1074 y_a3_proc_0 >= 0
 c230: u_a3 - u_a12 - 264 y_a12_proc_0 >= -1
 c231: u_a13 - u_a3 - 1074 y_a3_proc_0 >= 0
 c232: u_a3 - u_a13 - 1066 y_a13_proc_0 >= -1
 c233: u_a14 - u_a3 - 1074 y_a3_proc_0 >= 1
 c234: u_a3 - u_a14 - 494 y_a14_proc_0 >= -2
 c235: u_a5 - u_a4 - 617 y_a4_proc_0 >= -1262
 c236: u_a5 - u_a4 - 697 y_a4_proc_1 >= -1262
 c237: u_a4 - u_a5 - 708 y_a5_proc_0 >= -1295
 c238: u_a4 - u_a5 - 946 y_a5_proc_1 >= -1295
 c239: u_a6 - u_a4 - 617 y_a4_proc_0 >= -2
 c240: u_a4 - u_a6 - 604 y_a6_proc_0 >= 1
 c241: u_a7 - u_a4 - 617 y_a4_proc_0 >= -1295
 c242: u_a7 - u_a4 - 697 y_a4_proc_1 >= -1295
 c243: u_a4 - u_a7 - 999 y_a7_proc_0 >= -1262
 c244: u_a4 - u_a7 - 1278 y_a7_proc_1 >= -1262
 c245: u_a8 - u_a4 - 617 y_a4_proc_0 >= -1
 c246: u_a4 - u_a8 - 879 y_a8_proc_0 >= 0
 c247: u_a9 - u_a4 - 617 y_a4_proc_0 >= -1295
 c248: u_a9 - u_a4 - 697 y_a4_proc_1 >= -1295
 c249: u_a4 - u_a9 - 899 y_a9_proc_0 >= -1262
 c250: u_a4 - u_a9 - 1249 y_a9_proc_1 >= -1262
 c251: u_a10 - u_a4 - 617 y_a4_proc_0 >= -1
 c252: u_a10 - u_a4 - 697 y_a4_proc_1 >= -2557
 c253: u_a4 - u_a10 - 766 y_a10_proc_0 >= 0
 c254: u_a4 - u_a10 - 1049 y_a10_proc_1 >= -2556
 c255: u_a11 - u_a4 - 617 y_a4_proc_0 >= -1295
 c256: u_a11 - u_a4 - 697 y_a4_proc_1 >= -1295
 c257: u_a4 - u_a11 - 1239 y_a11_proc_0 >= -1262
 c258: u_a4 - u_a11 - 1085 y_a11_proc_1 >= -1262
 c259: u_a12 - u_a4 - 617 y_a4_proc_0 >= -2
 c260: u_a12 - u_a4 - 697 y_a4_proc_1 >= -2558
 c261: u_a4 - u_a12 - 264 y_a12_proc_0 >= 1
 c262: u_a4 - u_a12 - 1129 y_a12_proc_1 >= -2555
 c263: u_a13 - u_a4 - 617 y_a4_proc_0 >= -2
 c264: u_a4 - u_a13 - 1066 y_a13_proc_0 >= 1
 c265: u_a14 - u_a4 - 617 y_a4_proc_0 >= -1
 c266: u_a14 - u_a4 - 697 y_a4_proc_1 >= -2557
 c267: u_a4 - u_a14 - 494 y_a14_proc_0 >= 0
 c268: u_a4 - u_a14 - 1141 y_a14_proc_1 >= -2556
 c269: u_a6 - u_a5 - 708 y_a5_proc_0 >= -1262
 c270: u_a5 - u_a6 - 604 y_a6_proc_0 >= -1295
 c271: u_a7 - u_a5 - 708 y_a5_proc_0 >= -2557
 c272: u_a7 - u_a5 - 946 y_a5_proc_1 >= -1
 c273: u_a5 - u_a7 - 999 y_a7_proc_0 >= -2556
 c274: u_a5 - u_a7 - 1278 y_a7_proc_1 >= 0
 c275: u_a8 - u_a5 - 708 y_a5_proc_0 >= -1262
 c276: u_a5 - u_a8 - 879 y_a8_proc_0 >= -1295
 c277: u_a9 - u_a5 - 708 y_a5_proc_0 >= -2557
 c278: u_a9 - u_a5 - 946 y_a5_proc_1 >= -1
 c279: u_a5 - u_a9 - 899 y_a9_proc_0 >= -2556
 c280: u_a5 - u_a9 - 1249 y_a9_proc_1 >= 0
 c281: u_a10 - u_a5 - 708 y_a5_proc_0 >= -1262
 c282: u_a10 - u_a5 - 946 y_a5_proc_1 >= -1262
 c283: u_a5 - u_a10 - 766 y_a10_proc_0 >= -1295
 c284: u_a5 - u_a10 - 1049 y_a10_proc_1 >= -1295
 c285: u_a11 - u_a5 - 708 y_a5_proc_0 >= -2556
 c286: u_a11 - u_a5 - 946 y_a5_proc_1 >= 0
 c287: u_a5 - u_a11 - 1239 y_a11_proc_0 >= -2557
 c288: u_a5 - u_a11 - 1085 y_a11_proc_1 >= -1
 c289: u_a12 - u_a5 - 708 y_a5_proc_0 >= -1295
 c290: u_a12 - u_a5 - 946 y_a5_proc_1 >= -1295
 c291: u_a5 - u_a12 - 264 y_a12_proc_0 >= -1262
 c292: u_a5 - u_a12 - 1129 y_a12_proc_1 >= -1262
 c293: u_a13 - u_a5 - 708 y_a5_proc_0 >= -1295
 c294: u_a5 - u_a13 - 1066 y_a13_proc_0 >= -1262
 c295: u_a14 - u_a5 - 708 y_a5_proc_0 >= -1262
 c296: u_a14 - u_a5 - 946 y_a5_proc_1 >= -1262
 c297: u_a5 - u_a14 - 494 y_a14_proc_0 >= -1295
 c298: u_a5 - u_a14 - 1141 y_a14_proc_1 >= -1295
 c299: u_a7 - u_a6 - 604 y_a6_proc_0 >= -1295
 c300: u_a6 - u_a7 - 999 y_a7_proc_0 >= -1262
 c301: u_a8 - u_a6 - 604 y_a6_proc_0 >= 0
 c302: u_a6 - u_a8 - 879 y_a8_proc_0 >= -1
 c303: u_a9 - u_a6 - 604 y_a6_proc_0 >= -1295
 c304: u_a6 - u_a9 - 899 y_a9_proc_0 >= -1262
 c305: u_a10 - u_a6 - 604 y_a6_proc_0 >= 0
 c306: u_a6 - u_a10 - 766 y_a10_proc_0 >= -1
 c307: u_a11 - u_a6 - 604 y_a6_proc_0 >= -1295
 c308: u_a6 - u_a11 - 1239 y_a11_proc_0 >= -1262
 c309: u_a12 - u_a6 - 604 y_a6_proc_0 >= 0
 c310: u_a6 - u_a12 - 264 y_a12_proc_0 >= -1
 c311: u_a13 - u_a6 - 604 y_a6_proc_0 >= -1
 c312: u_a6 - u_a13 - 1066 y_a13_proc_0 >= 0
 c313: u_a14 - u_a6 - 604 y_a6_proc_0 >= 0
 c314: u_a6 - u_a14 - 494 y_a14_proc_0 >= -1
 c315: u_a8 - u_a7 - 999 y_a7_proc_0 >= -1262
 c316: u_a7 - u_a8 - 879 y_a8_proc_0 >= -1295
 c317: u_a9 - u_a7 - 999 y_a7_proc_0 >= -2556
 c318: u_a9 - u_a7 - 1278 y_a7_proc_1 >= 0
 c319: u_a7 - u_a9 - 899 y_a9_proc_0 >= -2557
 c320: u_a7 - u_a9 - 1249 y_a9_proc_1 >= -1
 c321: u_a10 - u_a7 - 999 y_a7_proc_0 >= -1262
 c322: u_a10 - u_a7 - 1278 y_a7_proc_1 >= -1262
 c323: u_a7 - u_a10 - 766 y_a10_proc_0 >= -1295
 c324: u_a7 - u_a10 - 1049 y_a10_proc_1 >= -1295
 c325: u_a11 - u_a7 - 999 y_a7_proc_0 >= -2555
 c326: u_a11 - u_a7 - 1278 y_a7_proc_1 >= 1
 c327: u_a7 - u_a11 - 1239 y_a11_proc_0 >= -2558
 c328: u_a7 - u_a11 - 1085 y_a11_proc_1 >= -2
 c329: u_a12 - u_a7 - 999 y_a7_proc_0 >= -1295
 c330: u_a12 - u_a7 - 1278 y_a7_proc_1 >= -1295
 c331: u_a7 - u_a12 - 264 y_a12_proc_0 >= -1262
 c332: u_a7 - u_a12 - 1129 y_a12_proc_1 >= -1262
 c333: u_a13 - u_a7 - 999 y_a7_proc_0 >= -1262
 c334: u_a7 - u_a13 - 1066 y_a13_proc_0 >= -1295
 c335: u_a14 - u_a7 - 999 y_a7_proc_0 >= -1295
 c336: u_a14 - u_a7 - 1278 y_a7_proc_1 >= -1295
 c337: u_a7 - u_a14 - 494 y_a14_proc_0 >= -1262
 c338: u_a7 - u_a14 - 1141 y_a14_proc_1 >= -1262
 c339: u_a9 - u_a8 - 879 y_a8_proc_0 >= -1295
 c340: u_a8 - u_a9 - 899 y_a9_proc_0 >= -1262
 c341: u_a10 - u_a8 - 879 y_a8_proc_0 >= -1
 c342: u_a8 - u_a10 - 766 y_a10_proc_0 >= 0
 c343: u_a11 - u_a8 - 879 y_a8_proc_0 >= -1295
 c344: u_a8 - u_a11 - 1239 y_a11_proc_0 >= -1262
 c345: u_a12 - u_a8 - 879 y_a8_proc_0 >= -1
 c346: u_a8 - u_a12 - 264 y_a12_proc_0 >= 0
 c347: u_a13 - u_a8 - 879 y_a8_proc_0 >= -1
 c348: u_a8 - u_a13 - 1066 y_a13_proc_0 >= 0
 c349: u_a14 - u_a8 - 879 y_a8_proc_0 >= 0
 c350: u_a8 - u_a14 - 494 y_a14_proc_0 >= -1
 c351: u_a10 - u_a9 - 899 y_a9_proc_0 >= -1295
 c352: u_a10 - u_a9 - 1249 y_a9_proc_1 >= -1295
 c353: u_a9 - u_a10 - 766 y_a10_proc_0 >= -1262
 c354: u_a9 - u_a10 - 1049 y_a10_proc_1 >= -1262
 c355: u_a11 - u_a9 - 899 y_a9_proc_0 >= -2556
 c356: u_a11 - u_a9 - 1249 y_a9_proc_1 >= 0
 c357: u_a9 - u_a11 - 1239 y_a11_proc_0 >= -2557
 c358: u_a9 - u_a11 - 1085 y_a11_proc_1 >= -1
 c359: u_a12 - u_a9 - 899 y_a9_proc_0 >= -1295
 c360: u_a12 - u_a9 - 1249 y_a9_proc_1 >= -1295
 c361: u_a9 - u_a12 - 264 y_a12_proc_0 >= -1262
 c362: u_a9 - u_a12 - 1129 y_a12_proc_1 >= -1262
 c363: u_a13 - u_a9 - 899 y_a9_proc_0 >= -1262
 c364: u_a9 - u_a13 - 1066 y_a13_proc_0 >= -1295
 c365: u_a14 - u_a9 - 899 y_a9_proc_0 >= -1262
 c366: u_a14 - u_a9 - 1249 y_a9_proc_1 >= -1262
 c367: u_a9 - u_a14 - 494 y_a14_proc_0 >= -1295
 c368: u_a9 - u_a14 - 1141 y_a14_proc_1 >= -1295
 c369: u_a11 - u_a10 - 766 y_a10_proc_0 >= -1295
 c370: u_a11 - u_a10 - 1049 y_a10_proc_1 >= -1295
 c371: u_a10 - u_a11 - 1239 y_a11_proc_0 >= -1262
 c372: u_a10 - u_a11 - 1085 y_a11_proc_1 >= -1262
 c373: u_a12 - u_a10 - 766 y_a10_proc_0 >= -1
 c374: u_a12 - u_a10 - 1049 y_a10_proc_1 >= -2557
 c375: u_a10 - u_a12 - 264 y_a12_proc_0 >= 0
 c376: u_a10 - u_a12 - 1129 y_a12_proc_1 >= -2556
 c377: u_a13 - u_a10 - 766 y_a10_proc_0 >= -1
 c378: u_a10 - u_a13 - 1066 y_a13_proc_0 >= 0
 c379: u_a14 - u_a10 - 766 y_a10_proc_0 >= 0
 c380: u_a14 - u_a10 - 1049 y_a10_proc_1 >= -2556
 c381: u_a10 - u_a14 - 494 y_a14_proc_0 >= -1
 c382: u_a10 - u_a14 - 1141 y_a14_proc_1 >= -2557
 c383: u_a12 - u_a11 - 1239 y_a11_proc_0 >= -1295
 c384: u_a12 - u_a11 - 1085 y_a11_proc_1 >= -1295
 c385: u_a11 - u_a12 - 264 y_a12_proc_0 >= -1262
 c386: u_a11 - u_a12 - 1129 y_a12_proc_1 >= -1262
 c387: u_a13 - u_a11 - 1239 y_a11_proc_0 >= -1295
 c388: u_a11 - u_a13 - 1066 y_a13_proc_0 >= -1262
 c389: u_a14 - u_a11 - 1239 y_a11_proc_0 >= -1295
 c390: u_a14 - u_a11 - 1085 y_a11_proc_1 >= -1295
 c391: u_a11 - u_a14 - 494 y_a14_proc_0 >= -1262
 c392: u_a11 - u_a14 - 1141 y_a14_proc_1 >= -1262
 c393: u_a13 - u_a12 - 264 y_a12_proc_0 >= -1
 c394: u_a12 - u_a13 - 1066 y_a13_proc_0 >= 0
 c395: u_a14 - u_a12 - 264 y_a12_proc_0 >= 0
 c396: u_a14 - u_a12 - 1129 y_a12_proc_1 >= -2556
 c397: u_a12 - u_a14 - 494 y_a14_proc_0 >= -1
 c398: u_a12 - u_a14 - 1141 y_a14_proc_1 >= -2557
 c399: u_a14 - u_a13 - 1066 y_a13_proc_0 >= 0
 c400: u_a13 - u_a14 - 494 y_a14_proc_0 >= -1

Bounds
End
